34 40 47 4 6 7 8 9 11 13 17 18 28 29 39 42 52 53 63 64 68 70 72 73 74 75 77 22 25 38 43 56 59 10 14 16 65 67 71 12 20 24 57 61 69 2 27 54 79 5 31 35 46 76 30 41 51 3 15 26 55 66 78 1 19 21 23 36 45 58 60 62 80 50 37 44 32 33 48 49
